1
100
60
78 12
29 44
40 45
47 34
16 5
92 77
44 43
16 23
26 10
18 22
10 4
47 24
47 26
4 29
37 26
89 86
30 4
3 47
84 10
44 11
25 44
13 84
27 5
10 47
32 97
85 68
39 12
92 44
100 8
18 22
13 31
27 3
29 32
75 37
99 12
28 82
21 19
21 14
46 4
94 7
24 17
39 2
5 8
15 66
39 26
79 3
25 23
1 7
15 48
11 14
8 50
99 24
3 31
15 91
51 89
8 4
3 25
30 81
7 39
29 45
